webassembly/ejemplos_dzn/12/folder12_json_62.dzn
TERM = { '.', 's(2)', 'in_1', 'local_0', 'local_1', 'in_2', 's(1)', 's(0)', 's(3)', 'in_0'};
null = '.';
s = 12;
n = 11;
ndeps = 2;
max_registers_sz = 5;
NR = 2;
registers = [|'local_0', 's(1)', |'local_1', 's(3)'|];
dependencies = [|'i32.store16_0', 'i32.load8_u_1', |'i32.store16_0', 'i32.load16_u_3'|];
GET_ENUM = { GET1, GET2, GET3, GET4, GET5, GET6, GET7};
SET_ENUM = { SET1, SET2, SET3, SET4, SET5, SET6, SET7};
TEE_ENUM = { TEE1, TEE2, TEE3, TEE4, TEE5, TEE6, TEE7};
N = 5;
OP = { 'i32.const_0', 'i32.store16_0', 'i32.load8_u_1', 'i32.load16_u_3', 'i32.const_1' };
in_ops = [0, 2, 1, 1, 0 ];
out_ops = [1, 0, 1, 1, 1 ];
in1 = ['.', 'in_0', 'in_2', 'local_1', '.' ];
in2 = ['.', 'in_1', '.', '.', '.' ];
in3 = ['.', '.', '.', '.', '.' ];
out1 = ['s(2)', '.', 's(0)', 's(1)', 's(3)' ];
out2 = ['.', '.', '.', '.', '.' ];
out3 = ['.', '.', '.', '.', '.' ];
comm = [false, false, false, false, false ];
gas = [1, 1, 1, 1, 1 ];
sz = [1, 1, 1, 1, 1 ];
stor = [false, true, false, false, false ];
lb = [ 1, 1, 1, 1, 1 ];
ub = [ 12, 12, 12, 12, 12 ];
startstack = [ 'in_0', 'in_1', 'in_2', null, null, null, null, null, null, null, null ];
endstack = [ 's(2)', 's(1)', 's(0)', null, null, null, null, null, null, null, null ];
