webassembly/ejemplos_results/folder12_json_62.txt
=====UNSATISFIABLE=====
% time elapsed: 0.81 s
